53 40 26 
95 92 98 16 61 85 37 96 
12 29 79 78 34 35 77 
5 59 99 94 6 
27 30 51 9 81 50 
87 57 43 97 13 
52 82 7 18 
42 14 44 38 86 91 100 93 
28 76 3 68 24 80 
2 15 41 22 74 58 
83 45 8 84 17 60 89 
63 64 11 90 10 32 70 
47 36 19 49 46 48 
33 65 71 66 20 1 
21 73 75 56 4 54 
69 31 62 88 
72 39 23 67 55 25 
